p cnf 161616 96
10201 0
10446 0
10502 0
10708 0
10804 0
20407 0
20505 0
20646 0
20903 0
21047 0
21148 0
21604 0
30443 0
30748 0
30809 0
31106 0
31346 0
31505 0
31603 0
40206 0
40547 0
40745 0
40905 0
41004 0
41146 0
50248 0
51044 0
51101 0
51247 0
51508 0
60147 0
60405 0
60642 0
60906 0
61345 0
70146 0
70408 0
70545 0
71301 0
71407 0
80107 0
80404 0
80909 0
81043 0
81102 0
81305 0
81448 0
81542 0
90245 0
90342 0
90403 0
90602 0
90706 0
90807 0
91348 0
91643 0
100302 0
100447 0
101246 0
101303 0
101605 0
110444 0
110848 0
111109 0
111347 0
111608 0
120243 0
120503 0
120647 0
120744 0
121501 0
130601 0
130707 0
130843 0
131003 0
131245 0
131548 0
140144 0
140246 0
140409 0
140604 0
140948 0
141002 0
141342 0
150148 0
150606 0
150746 0
150847 0
151107 0
151244 0
151343 0
160947 0
161009 0
161242 0
161304 0
161503 0
